
ASes= { 1, 2, 3, 4, 5, 6, 7, 8, 9, 10, 11 } ;


Objects= { 1, 2, 3, 4, 5, 6, 7, 8, 9, 10, 11, 12, 13, 14, 15, 16, 17, 18, 19, 20, 21, 22, 23, 24, 25, 26, 27, 28, 29, 30, 31, 32, 33, 34, 35, 36, 37, 38, 39, 40, 41, 42, 43, 44, 45, 46, 47, 48, 49, 50, 51, 52, 53, 54, 55, 56, 57, 58, 59, 60, 61, 62, 63, 64, 65, 66, 67, 68, 69, 70, 71, 72, 73, 74, 75, 76, 77, 78, 79, 80, 81, 82, 83, 84, 85, 86, 87, 88, 89, 90, 91, 92, 93, 94, 95, 96, 97, 98, 99, 100 } ;


QualityLevels= { 0, 1, 2, 3, 4, 5 } ;

Arcs = {<2,1,490000>, <1,2,490000>, <11,1,490000>, <1,11,490000>, <11,2,490000>, <2,11,490000>, <11,10,490000>, <10,11,490000>, <3,2,490000>, <2,3,490000>, <4,3,490000>, <3,4,490000>, <5,4,490000>, <4,5,490000>, <6,5,490000>, <5,6,490000>, <7,6,490000>, <6,7,490000>, <8,4,490000>, <4,8,490000>, <8,7,490000>, <7,8,490000>, <9,3,490000>, <3,9,490000>, <9,8,490000>, <8,9,490000>, <10,9,490000>, <9,10,490000>};


RatePerQuality= [ 0  300  700  1500  2500  3500 ] ;


CacheSpacePerQuality= [ 10000  11.25  26.25  56.25  93.75  131.25 ] ;


UtilityPerQuality= [ 0  0.2  0.4  0.6  0.8  1 ] ;


ObjectsPublishedByProducers=[ [ 0  0  0  0  0  0  0  1  0  0  0 ]  [ 0  0  0  0  0  0  0  1  0  0  0 ]  [ 0  0  0  0  0  0  0  1  0  0  0 ]  [ 0  0  0  0  0  0  0  1  0  0  0 ]  [ 0  0  0  0  0  0  0  1  0  0  0 ]  [ 0  0  0  0  0  0  0  1  0  0  0 ]  [ 0  0  0  0  0  0  0  1  0  0  0 ]  [ 0  0  0  0  0  0  0  1  0  0  0 ]  [ 0  0  0  0  0  0  0  1  0  0  0 ]  [ 0  0  0  0  0  0  0  1  0  0  0 ]  [ 0  0  0  0  0  0  0  1  0  0  0 ]  [ 0  0  0  0  0  0  0  1  0  0  0 ]  [ 0  0  0  0  0  0  0  1  0  0  0 ]  [ 0  0  0  0  0  0  0  1  0  0  0 ]  [ 0  0  0  0  0  0  0  1  0  0  0 ]  [ 0  0  0  0  0  0  0  1  0  0  0 ]  [ 0  0  0  0  0  0  0  1  0  0  0 ]  [ 0  0  0  0  0  0  0  1  0  0  0 ]  [ 0  0  0  0  0  0  0  1  0  0  0 ]  [ 0  0  0  0  0  0  0  1  0  0  0 ]  [ 0  0  0  0  0  0  0  1  0  0  0 ]  [ 0  0  0  0  0  0  0  1  0  0  0 ]  [ 0  0  0  0  0  0  0  1  0  0  0 ]  [ 0  0  0  0  0  0  0  1  0  0  0 ]  [ 0  0  0  0  0  0  0  1  0  0  0 ]  [ 0  0  0  0  0  0  0  1  0  0  0 ]  [ 0  0  0  0  0  0  0  1  0  0  0 ]  [ 0  0  0  0  0  0  0  1  0  0  0 ]  [ 0  0  0  0  0  0  0  1  0  0  0 ]  [ 0  0  0  0  0  0  0  1  0  0  0 ]  [ 0  0  0  0  0  0  0  1  0  0  0 ]  [ 0  0  0  0  0  0  0  1  0  0  0 ]  [ 0  0  0  0  0  0  0  1  0  0  0 ]  [ 0  0  0  0  0  0  0  1  0  0  0 ]  [ 0  0  0  0  0  0  0  1  0  0  0 ]  [ 0  0  0  0  0  0  0  1  0  0  0 ]  [ 0  0  0  0  0  0  0  1  0  0  0 ]  [ 0  0  0  0  0  0  0  1  0  0  0 ]  [ 0  0  0  0  0  0  0  1  0  0  0 ]  [ 0  0  0  0  0  0  0  1  0  0  0 ]  [ 0  0  0  0  0  0  0  1  0  0  0 ]  [ 0  0  0  0  0  0  0  1  0  0  0 ]  [ 0  0  0  0  0  0  0  1  0  0  0 ]  [ 0  0  0  0  0  0  0  1  0  0  0 ]  [ 0  0  0  0  0  0  0  1  0  0  0 ]  [ 0  0  0  0  0  0  0  1  0  0  0 ]  [ 0  0  0  0  0  0  0  1  0  0  0 ]  [ 0  0  0  0  0  0  0  1  0  0  0 ]  [ 0  0  0  0  0  0  0  1  0  0  0 ]  [ 0  0  0  0  0  0  0  1  0  0  0 ]  [ 0  0  0  0  0  0  0  1  0  0  0 ]  [ 0  0  0  0  0  0  0  1  0  0  0 ]  [ 0  0  0  0  0  0  0  1  0  0  0 ]  [ 0  0  0  0  0  0  0  1  0  0  0 ]  [ 0  0  0  0  0  0  0  1  0  0  0 ]  [ 0  0  0  0  0  0  0  1  0  0  0 ]  [ 0  0  0  0  0  0  0  1  0  0  0 ]  [ 0  0  0  0  0  0  0  1  0  0  0 ]  [ 0  0  0  0  0  0  0  1  0  0  0 ]  [ 0  0  0  0  0  0  0  1  0  0  0 ]  [ 0  0  0  0  0  0  0  1  0  0  0 ]  [ 0  0  0  0  0  0  0  1  0  0  0 ]  [ 0  0  0  0  0  0  0  1  0  0  0 ]  [ 0  0  0  0  0  0  0  1  0  0  0 ]  [ 0  0  0  0  0  0  0  1  0  0  0 ]  [ 0  0  0  0  0  0  0  1  0  0  0 ]  [ 0  0  0  0  0  0  0  1  0  0  0 ]  [ 0  0  0  0  0  0  0  1  0  0  0 ]  [ 0  0  0  0  0  0  0  1  0  0  0 ]  [ 0  0  0  0  0  0  0  1  0  0  0 ]  [ 0  0  0  0  0  0  0  1  0  0  0 ]  [ 0  0  0  0  0  0  0  1  0  0  0 ]  [ 0  0  0  0  0  0  0  1  0  0  0 ]  [ 0  0  0  0  0  0  0  1  0  0  0 ]  [ 0  0  0  0  0  0  0  1  0  0  0 ]  [ 0  0  0  0  0  0  0  1  0  0  0 ]  [ 0  0  0  0  0  0  0  1  0  0  0 ]  [ 0  0  0  0  0  0  0  1  0  0  0 ]  [ 0  0  0  0  0  0  0  1  0  0  0 ]  [ 0  0  0  0  0  0  0  1  0  0  0 ]  [ 0  0  0  0  0  0  0  1  0  0  0 ]  [ 0  0  0  0  0  0  0  1  0  0  0 ]  [ 0  0  0  0  0  0  0  1  0  0  0 ]  [ 0  0  0  0  0  0  0  1  0  0  0 ]  [ 0  0  0  0  0  0  0  1  0  0  0 ]  [ 0  0  0  0  0  0  0  1  0  0  0 ]  [ 0  0  0  0  0  0  0  1  0  0  0 ]  [ 0  0  0  0  0  0  0  1  0  0  0 ]  [ 0  0  0  0  0  0  0  1  0  0  0 ]  [ 0  0  0  0  0  0  0  1  0  0  0 ]  [ 0  0  0  0  0  0  0  1  0  0  0 ]  [ 0  0  0  0  0  0  0  1  0  0  0 ]  [ 0  0  0  0  0  0  0  1  0  0  0 ]  [ 0  0  0  0  0  0  0  1  0  0  0 ]  [ 0  0  0  0  0  0  0  1  0  0  0 ]  [ 0  0  0  0  0  0  0  1  0  0  0 ]  [ 0  0  0  0  0  0  0  1  0  0  0 ]  [ 0  0  0  0  0  0  0  1  0  0  0 ]  [ 0  0  0  0  0  0  0  1  0  0  0 ]  [ 0  0  0  0  0  0  0  1  0  0  0 ] ];

ObjRequests = {  <1,5,1439>, <2,5,611>, <3,5,385>, <4,5,42>, <5,5,186>, <6,5,55>, <7,5,29>, <8,5,63>, <9,5,161>, <10,5,12>, <11,5,22>, <12,5,10>, <13,5,59>, <15,5,30>, <16,5,104>, <17,5,51>, <18,5,84>, <19,5,28>, <20,5,4>, <21,5,23>, <22,5,30>, <23,5,20>, <24,5,20>, <25,5,15>, <26,5,13>, <27,5,30>, <28,5,20>, <29,5,22>, <30,5,13>, <31,5,6>, <32,5,2>, <33,5,13>, <34,5,27>, <35,5,13>, <36,5,13>, <37,5,3>, <38,5,22>, <39,5,7>, <40,5,7>, <41,5,8>, <42,5,40>, <43,5,42>, <44,5,31>, <45,5,20>, <46,5,5>, <47,5,9>, <48,5,3>, <49,5,12>, <50,5,12>, <51,5,12>, <52,5,6>, <53,5,7>, <54,5,4>, <56,5,3>, <57,5,10>, <58,5,6>, <59,5,11>, <60,5,1>, <61,5,31>, <62,5,36>, <63,5,1>, <64,5,25>, <65,5,7>, <66,5,9>, <67,5,4>, <68,5,4>, <69,5,5>, <70,5,2>, <71,5,1>, <72,5,8>, <73,5,2>, <74,5,17>, <75,5,16>, <76,5,7>, <77,5,3>, <78,5,6>, <79,5,4>, <80,5,4>, <81,5,9>, <82,5,13>, <83,5,4>, <85,5,8>, <86,5,4>, <87,5,1>, <88,5,2>, <89,5,1>, <90,5,12>, <91,5,9>, <92,5,5>, <93,5,15>, <95,5,4>, <96,5,5>, <97,5,5>, <98,5,15>, <99,5,5>, <1,6,581>, <2,6,120>, <3,6,35>, <4,6,86>, <5,6,128>, <6,6,246>, <7,6,171>, <8,6,260>, <9,6,1>, <10,6,37>, <11,6,11>, <12,6,71>, <13,6,50>, <14,6,77>, <15,6,43>, <16,6,2>, <17,6,32>, <18,6,31>, <19,6,25>, <20,6,35>, <21,6,10>, <23,6,6>, <24,6,41>, <25,6,30>, <26,6,50>, <27,6,6>, <28,6,10>, <29,6,30>, <30,6,73>, <31,6,36>, <32,6,11>, <33,6,6>, <34,6,4>, <35,6,13>, <36,6,7>, <37,6,11>, <38,6,12>, <39,6,22>, <40,6,2>, <41,6,2>, <42,6,2>, <43,6,3>, <44,6,7>, <45,6,4>, <46,6,12>, <47,6,10>, <49,6,9>, <50,6,13>, <51,6,6>, <52,6,1>, <53,6,24>, <54,6,3>, <55,6,6>, <56,6,23>, <57,6,6>, <58,6,4>, <59,6,18>, <60,6,1>, <62,6,6>, <64,6,5>, <65,6,1>, <66,6,2>, <67,6,38>, <68,6,15>, <69,6,2>, <70,6,5>, <71,6,22>, <72,6,29>, <73,6,2>, <74,6,8>, <75,6,1>, <76,6,7>, <77,6,3>, <78,6,13>, <79,6,12>, <80,6,3>, <81,6,3>, <82,6,15>, <83,6,8>, <84,6,6>, <85,6,12>, <86,6,2>, <87,6,6>, <88,6,7>, <90,6,9>, <91,6,12>, <92,6,3>, <93,6,11>, <94,6,21>, <95,6,12>, <96,6,4>, <97,6,11>, <98,6,6>, <99,6,19>, <100,6,26>, <1,7,695>, <2,7,644>, <3,7,375>, <4,7,90>, <5,7,27>, <6,7,57>, <7,7,67>, <8,7,13>, <9,7,85>, <10,7,92>, <11,7,50>, <12,7,11>, <13,7,7>, <14,7,46>, <15,7,25>, <16,7,21>, <17,7,19>, <18,7,27>, <19,7,75>, <20,7,90>, <21,7,3>, <23,7,19>, <24,7,50>, <25,7,18>, <26,7,33>, <27,7,12>, <28,7,61>, <29,7,19>, <30,7,10>, <31,7,23>, <32,7,37>, <33,7,70>, <34,7,26>, <35,7,8>, <36,7,6>, <37,7,2>, <38,7,33>, <39,7,2>, <40,7,25>, <41,7,6>, <42,7,19>, <43,7,1>, <44,7,13>, <45,7,33>, <46,7,26>, <47,7,7>, <48,7,22>, <49,7,20>, <50,7,18>, <51,7,4>, <52,7,23>, <53,7,15>, <54,7,36>, <55,7,23>, <56,7,20>, <57,7,2>, <58,7,6>, <59,7,5>, <60,7,3>, <61,7,4>, <62,7,1>, <63,7,5>, <64,7,4>, <65,7,9>, <66,7,18>, <68,7,22>, <69,7,13>, <70,7,5>, <71,7,15>, <72,7,8>, <73,7,10>, <74,7,8>, <75,7,6>, <76,7,10>, <77,7,16>, <78,7,15>, <79,7,12>, <80,7,3>, <81,7,1>, <82,7,3>, <83,7,7>, <85,7,2>, <86,7,16>, <87,7,2>, <88,7,2>, <89,7,17>, <90,7,4>, <91,7,1>, <92,7,9>, <93,7,2>, <95,7,1>, <96,7,1>, <99,7,3>, <100,7,11>, <1,1,351>, <2,1,138>, <3,1,16>, <4,1,215>, <5,1,182>, <6,1,117>, <7,1,90>, <8,1,2>, <9,1,10>, <10,1,170>, <11,1,171>, <12,1,67>, <13,1,66>, <14,1,19>, <15,1,21>, <16,1,6>, <17,1,85>, <18,1,1>, <19,1,17>, <20,1,5>, <21,1,51>, <22,1,23>, <23,1,39>, <24,1,7>, <25,1,33>, <26,1,8>, <27,1,46>, <28,1,23>, <29,1,36>, <30,1,1>, <31,1,13>, <32,1,20>, <33,1,1>, <34,1,11>, <35,1,2>, <37,1,52>, <38,1,4>, <39,1,21>, <40,1,17>, <41,1,28>, <42,1,17>, <43,1,30>, <44,1,16>, <45,1,11>, <46,1,24>, <47,1,48>, <48,1,21>, <49,1,8>, <50,1,1>, <51,1,8>, <52,1,23>, <53,1,1>, <54,1,2>, <55,1,19>, <56,1,6>, <57,1,5>, <58,1,21>, <59,1,6>, <60,1,32>, <61,1,4>, <63,1,14>, <64,1,9>, <65,1,13>, <66,1,2>, <67,1,6>, <68,1,8>, <69,1,3>, <70,1,9>, <71,1,15>, <72,1,1>, <73,1,16>, <74,1,2>, <75,1,12>, <76,1,6>, <77,1,3>, <78,1,1>, <79,1,6>, <80,1,18>, <81,1,11>, <82,1,1>, <83,1,6>, <84,1,16>, <85,1,2>, <86,1,2>, <87,1,4>, <88,1,9>, <89,1,3>, <90,1,1>, <91,1,3>, <92,1,8>, <93,1,2>, <94,1,4>, <95,1,5>, <96,1,14>, <97,1,11>, <98,1,6>, <99,1,4>, <100,1,1>, <1,10,87>, <2,10,8>, <3,10,253>, <4,10,361>, <5,10,139>, <6,10,106>, <7,10,92>, <8,10,76>, <9,10,70>, <10,10,25>, <11,10,43>, <12,10,104>, <13,10,80>, <14,10,58>, <15,10,95>, <16,10,51>, <18,10,15>, <19,10,13>, <20,10,45>, <21,10,69>, <22,10,85>, <23,10,55>, <24,10,14>, <25,10,22>, <26,10,9>, <27,10,9>, <28,10,7>, <29,10,6>, <30,10,4>, <31,10,22>, <32,10,17>, <33,10,2>, <34,10,26>, <35,10,50>, <36,10,66>, <37,10,2>, <38,10,15>, <39,10,36>, <40,10,13>, <41,10,45>, <42,10,7>, <43,10,8>, <44,10,6>, <45,10,5>, <46,10,8>, <47,10,4>, <48,10,17>, <49,10,7>, <50,10,28>, <51,10,30>, <52,10,7>, <53,10,2>, <54,10,4>, <55,10,2>, <56,10,8>, <57,10,28>, <58,10,21>, <59,10,1>, <60,10,6>, <61,10,12>, <62,10,4>, <63,10,27>, <64,10,9>, <65,10,17>, <66,10,23>, <67,10,3>, <68,10,2>, <69,10,17>, <70,10,17>, <71,10,1>, <72,10,5>, <73,10,5>, <74,10,3>, <75,10,4>, <76,10,6>, <77,10,20>, <78,10,6>, <79,10,13>, <80,10,5>, <81,10,12>, <82,10,8>, <83,10,13>, <84,10,11>, <85,10,8>, <86,10,11>, <87,10,16>, <88,10,10>, <89,10,7>, <90,10,14>, <91,10,9>, <92,10,5>, <93,10,2>, <94,10,8>, <95,10,7>, <96,10,14>, <97,10,1>, <98,10,6>, <99,10,2>, <100,10,1> };

MaxCacheStorageAtSingleAS= [ 131.25  131.25  131.25  131.25  131.25  131.25  131.25  131.25  131.25  131.25  131.25 ] ;

MaxCacheStorage = 1443.75 ;
SolutionGap = 0.01 ;
